1,1
2,1
3,1
4,0
5,0
6,1
7,1
8,0
9,0
10,1
11,0
12,0
13,0
14,0
15,0
16,0
17,0
18,0
19,1
20,1
21,1
22,1
23,1
24,1
25,0
26,0
27,1
28,1
29,1
30,1
31,1
32,1
33,1
34,1
35,0
36,1
37,1
38,1
39,1
40,1
41,0
42,1
43,0
44,1
45,1
46,0
47,0
48,1
49,1
50,1
51,1
52,1
53,1
54,0
55,0
56,1
57,1
58,1
59,1
60,1
61,1
62,0
63,0
64,1
65,0
66,1
67,0
68,1
69,1
70,1
71,1
72,1
73,1
74,1
75,1
76,1
77,1
78,1
79,1
80,1
81,1
82,0
83,0
84,0
85,1
86,1
87,1
88,1
89,1
90,0
91,0
92,0
93,0
94,1
95,1
96,1
97,0
98,1
99,1
100,0
101,0
102,0
103,0
104,0
105,0
106,0
107,0
108,0
109,0
110,0
111,0
112,0
113,0
114,0
115,0
116,0
117,0
118,0
119,0
120,0
121,0
122,0
123,0
124,0
125,0
126,0
127,0
128,0
129,0
130,0
131,1
132,1
133,1
134,1
135,1
136,0
137,0
138,0
139,0
140,0
141,0
142,0
143,0
144,0
145,0
146,0
147,0
148,0
149,0
150,0
151,1
152,0
153,1
154,1
155,1
156,0
157,1
158,0
159,1
160,1
161,1
162,1
163,0
164,0
165,0
166,0
167,0
168,0
169,1
170,0
171,1
172,0
173,1
174,1
175,1
176,1
177,1
178,1
179,1
180,1
181,1
182,1
183,1
184,1
185,1
186,1
187,1
188,1
189,1
190,1
191,1
192,0
193,1
194,1
195,1
196,1
197,1
198,1
199,1
200,1
201,1
202,1
203,1
204,1
205,1
206,1
207,1
208,1
209,1
210,1
211,1
212,1
213,1
214,1
215,1
216,1
217,1
218,1
219,1
220,1
221,1
222,1
223,0
224,1
225,1
226,1
227,1
228,1
229,1
230,1
231,1
232,1
233,1
234,1
235,1
236,1
237,1
238,0
239,1
240,1
241,1
242,1
243,1
244,1
245,1
246,1
247,1
248,1
249,1
250,1
251,0
252,1
253,1
254,1
255,1
256,1
257,1
258,1
259,1
260,1
261,1
262,1
263,0
264,1
265,1
266,1
267,1
268,1
269,1
270,1
271,1
272,1
273,1
274,1
275,1
276,1
277,1
278,1
279,1
280,1
281,1
282,1
283,1
284,1
285,0
286,1
287,1
288,1
289,1
290,1
291,1
292,1
293,1
294,1
295,1
296,1
297,1
298,0
299,1
300,0
301,1
302,1
303,1
304,1
305,1
306,1
307,1
308,1
309,1
310,1
311,1
312,1
313,1
314,1
315,1
316,0
317,0
318,0
319,0
320,0
321,0
322,0
323,1
324,1
325,1
326,1
327,1
328,1
329,1
330,1
331,0
332,1
333,1
334,0
335,0
336,0
337,1
338,0
339,1
340,1
341,1
342,1
343,0
344,0
345,0
346,0
347,0
348,1
349,0
350,1
351,1
352,1
353,1
354,0
355,0
356,1
357,1
358,1
359,0
360,0
361,0
362,0
363,0
364,1
365,1
366,0
367,1
368,1
369,0
370,1
371,1
372,1
373,1
374,1
375,1
376,1
377,1
378,1
379,1
380,1
381,1
382,1
383,1
384,0
385,1
386,1
387,0
388,1
389,1
390,1
391,1
392,1
393,1
394,1
395,1
396,1
397,1
398,0
399,1
400,1
401,1
402,1
403,1
404,1
405,1
406,1
407,1
408,1
409,0
410,0
411,0
412,0
413,0
414,1
415,0
416,1
417,0
418,1
419,1
420,1
421,1
422,0
423,0
424,0
425,0
426,1
427,0
428,0
429,1
430,0
431,0
432,0
433,0
434,0
435,0
436,0
437,0
438,0
439,0
440,1
441,1
442,1
443,1
444,1
445,1
446,1
447,1
448,1
449,1
450,1
451,1
452,1
453,1
454,1
455,1
456,1
457,1
458,0
459,0
460,1
461,1
462,0
463,1
464,1
465,1
466,1
467,0
468,0
469,1
470,0
471,0
472,0
473,0
474,0
475,1
476,1
477,1
478,0
479,0
480,0
481,1
482,0
483,0
484,0
485,1
486,0
487,1
488,1
489,1
490,0
491,1
492,0
493,1
494,1
495,1
496,1
497,1
498,1
499,1
500,0
501,1
502,0
503,1
504,1
505,1
506,0
507,1
508,1
509,1
510,0
511,1
512,1
513,1
514,1
515,0
516,0
517,1
518,1
519,0
520,1
521,0
522,0
523,0
524,0
525,1
526,1
527,0
528,1
529,1
530,0
531,1
532,1
533,0
534,0
535,1
536,0
537,0
538,1
539,0
540,0
541,0
542,0
543,0
544,1
545,0
546,1
547,0
548,0
549,1
550,0
551,0
552,0
553,0
554,0
555,1
556,0
557,0
558,0
559,1
560,1
561,0
562,1
563,1
564,1
565,1
566,1
567,1
568,1
569,1
570,1
571,0
572,1
573,1
574,1
575,1
576,1
577,1
578,1
579,1
580,1
581,1
582,1
583,1
584,1
585,0
586,1
587,0
588,1
589,1
590,1
591,0
592,1
593,1
594,1
595,0
596,0
597,1
598,0
599,0
600,0
601,0
602,1
603,1
604,1
605,1
606,1
607,1
608,1
609,1
610,1
611,1
612,1
613,1
614,0
615,1
616,0
617,0
618,0
619,1
620,0
621,0
622,1
623,0
624,0
625,0
626,0
627,0
628,1
629,1
630,1
631,1
632,1
633,1
634,1
635,1
636,1
637,1
638,1
639,1
640,1
641,1
642,1
643,1
644,1
645,1
646,1
647,1
648,1
649,1
650,1
651,1
652,1
653,0
654,1
655,1
656,1
657,1
658,1
659,0
660,1
661,0
662,0
663,0
664,1
665,0
666,0
667,0
668,0
669,0
670,1
671,1
672,0
673,0
674,0
675,0
676,0
677,0
678,0
679,0
680,0
681,0
682,0
683,0
684,0
685,0
686,0
687,0
688,0
689,0
690,0
691,0
692,0
693,1
694,1
695,1
696,1
697,1
698,1
699,1
700,1
701,1
702,1
703,1
704,1
705,1
706,0
707,1
708,1
709,1
710,0
711,0
712,0
713,0
714,0
715,0
716,0
717,0
718,1
719,1
720,1
721,1
722,1
723,1
724,1
725,1
726,0
727,0
728,0
729,0
730,0
731,1
732,1
733,1
734,1
735,1
736,0
737,0
738,0
739,1
740,1
741,1
742,0
743,0
744,1
745,1
746,1
747,1
748,0
749,0
750,0
